; benchmark generated from python API
(set-info :status unknown)
(declare-fun S_1 () Real)
(declare-fun S_3 () Real)
(declare-fun A_3 () Real)
(declare-fun S_4 () Real)
(declare-fun L_2 () Real)
(declare-fun S_0 () Real)
(declare-fun A_0 () Real)
(declare-fun L_0 () Real)
(declare-fun L0 () Real)
(declare-fun A_4 () Real)
(declare-fun L_3 () Real)
(declare-fun A_1 () Real)
(declare-fun L_1 () Real)
(declare-fun A_2 () Real)
(declare-fun S_2 () Real)
(assert
 (let (($x2859 (<= (+ L_0 (* (- 1.0) A_0) (* (- 1.0) S_3) (* 2.0 S_1)) 0.0)))
 (let (($x37 (>= L0 0.0)))
 (let (($x1104 (<= (+ S_0 (* (- 1.0) A_0) L_0) 0.0)))
 (let (($x2432 (<= (+ L_3 (* (- 1.0) A_4) S_4) 0.0)))
 (let (($x4686 (<= (+ L_1 (* (- 1.0) A_1) S_1) 0.0)))
 (let ((?x2150 (* 2.0 A_1)))
 (let ((?x946 (* (- 1.0) S_0)))
 (let ((?x524 (* (- 1.0) A_2)))
 (let ((?x10318 (* (- 2.0) L_0)))
 (let (($x13144 (not (<= (+ L_2 ?x10318 ?x524 ?x946 ?x2150) (- 5.0)))))
 (let ((?x520 (* (- 1.0) A_3)))
 (let ((?x602 (* (- 1.0) L_0)))
 (let ((?x7302 (* 2.0 L_2)))
 (let (($x3384 (= L_2 L_0)))
 (let (($x18004 (or $x3384 (<= (+ (* 3.0 L_2) ?x10318 (* (- 3.0) A_2) S_4 ?x2150) (- 15.0)) $x13144)))
 (let ((?x503 (* (- 1.0) S_3)))
 (let ((?x12177 (* (- 2.0) A_2)))
 (let ((?x1046 (* (- 2.0) L_3)))
 (let ((?x1042 (* 2.0 A_3)))
 (let (($x2840 (<= (+ ?x602 A_1 (* (- (/ 1.0 2.0)) S_0) (* (- (/ 1.0 2.0)) S_3)) 0.0)))
 (let (($x64 (= L_2 L_1)))
 (let (($x26395 (or $x64 (<= (+ A_3 (* (- 1.0) L_3) ?x7302 ?x12177 A_1 ?x602) (- 5.0)) (<= (+ ?x1042 ?x1046 (* 3.0 L_2) (* (- 3.0) A_2) S_0) (- 5.0)))))
 (let (($x5712 (<= 0.0 (+ L_0 ?x524 L_2 (* (- 1.0) A_1) (* (- 1.0) L_3) A_3 S_0))))
 (let (($x4902 (<= 0.0 (+ L_0 (* (- 1.0) A_1) (* (/ 1.0 3.0) S_4) (* (/ 2.0 3.0) S_0)))))
 (let (($x21985 (or $x2840 (<= (+ L_2 S_4 ?x520 (* (/ 1.0 2.0) S_0) (* (- (/ 1.0 2.0)) S_3)) 0.0))))
 (let ((?x1045 (* (/ 1.0 2.0) A_1)))
 (let ((?x1776 (* (- (/ 3.0 2.0)) A_3)))
 (let ((?x3306 (* (/ 3.0 2.0) L_3)))
 (let ((?x5588 (* (- (/ 1.0 2.0)) L_0)))
 (let (($x887 (<= (+ (* (/ 4.0 3.0) L_3) S_4 (* (/ 1.0 3.0) S_0) (* (- (/ 4.0 3.0)) A_3)) (- (/ 20.0 3.0)))))
 (let (($x74 (= L_3 L_2)))
 (let (($x2024 (or $x74 (<= (+ (* 2.0 L_3) S_4 (* (- 2.0) A_3) S_2) (- 10.0)))))
 (let (($x1181 (<= (+ A_1 ?x602 (* (- 1.0) S_2)) 0.0)))
 (let ((?x274 (* (- 1.0) S_1)))
 (let ((?x12768 (* 2.0 A_2)))
 (let ((?x914 (* (- 2.0) L_2)))
 (let ((?x4364 (* 2.0 L_3)))
 (let ((?x965 (* (- 2.0) A_3)))
 (let (($x2181 (not $x2840)))
 (let (($x17260 (or $x64 $x2181 (<= (+ A_3 (* (- 1.0) L_3) L_2 ?x524 A_1 ?x602 ?x503) 0.0))))
 (let (($x14093 (<= (+ (* (/ 3.0 2.0) L_2) (* (- (/ 1.0 2.0)) A_2) S_4 ?x520 (* (/ 1.0 2.0) S_0)) (- (/ 5.0 2.0)))))
 (let ((?x214 (* (- 1.0) A_1)))
 (let ((?x3521 (* (/ 1.0 2.0) S_0)))
 (let ((?x12700 (* (/ 1.0 2.0) A_2)))
 (let ((?x16834 (* (- (/ 1.0 2.0)) L_2)))
 (let (($x13363 (<= (/ 5.0 2.0) (+ ?x16834 L_0 ?x12700 ?x3521 ?x214))))
 (let (($x19081 (or $x64 (<= (+ L_1 ?x214 S_0) (- 5.0)) (<= (+ L_2 ?x602 ?x524 A_1) (- 10.0)))))
 (let ((?x2598 (* 4.0 A_2)))
 (let ((?x1839 (* (- 4.0) L_2)))
 (let ((?x2603 (* 4.0 L_3)))
 (let ((?x1977 (* (- 4.0) A_3)))
 (let (($x16583 (or $x64 (<= (+ (* (/ 1.0 2.0) L_2) (* (- (/ 1.0 2.0)) A_2) ?x3521) (- (/ 15.0 2.0))) $x13363)))
 (let ((?x4414 (* 3.0 A_2)))
 (let ((?x6518 (* (- 3.0) L_2)))
 (let ((?x4057 (* 3.0 L_3)))
 (let ((?x10636 (* (- 3.0) A_3)))
 (let (($x13242 (<= (+ (* (- (/ 3.0 2.0)) L_0) (* (- (/ 1.0 2.0)) S_4) ?x946 (* (/ 3.0 2.0) A_1)) 0.0)))
 (let (($x26454 (or $x64 (not $x13242) (<= (+ ?x1042 ?x1046 ?x7302 ?x12177 A_1 ?x602 (* (- 1.0) S_4)) 0.0))))
 (let (($x1726 (not (= L_2 L_3))))
 (let (($x1655 (not (= L_0 L_1))))
 (let (($x16432 (or $x1655 $x1726 $x3384 (<= 0.0 (+ L_0 ?x524 ?x214 A_3 S_0)) (<= (+ ?x1042 ?x12177 ?x503 S_0) 0.0))))
 (let (($x8307 (<= (+ (* 3.0 L_2) (* (- 3.0) A_2) S_4 (* 2.0 S_1)) (- 15.0))))
 (let (($x1731 (or $x74 (<= (+ L_0 ?x4364 (* (- 1.0) A_0) ?x965 (* 3.0 S_2)) (- 10.0)))))
 (let ((?x10593 (* (- (/ 1.0 2.0)) A_1)))
 (let ((?x2127 (* (- (/ 1.0 2.0)) A_3)))
 (let ((?x19614 (* (/ 1.0 2.0) L_3)))
 (let ((?x1044 (* (/ 1.0 2.0) L_0)))
 (let (($x15794 (or $x74 (<= (+ ?x10636 ?x4057 ?x6518 ?x4414 L_0 S_3 (* (- 1.0) A_0)) 0.0))))
 (let (($x17618 (or $x74 (<= (+ ?x965 ?x4364 ?x914 ?x12768 S_3 (* (- 1.0) S_2)) 0.0))))
 (let (($x16227 (or $x64 $x1726 (<= (+ ?x1042 L_2 (* (- 3.0) A_2) S_0) (- 5.0)) (<= (+ L_2 ?x602 ?x12177 A_3 A_1) (- 5.0)))))
 (let (($x8960 (or $x64 (<= (+ L_2 L_0 ?x524 (* (- 1.0) A_0) (* 2.0 S_1)) (- 5.0)))))
 (let (($x8054 (<= (+ A_3 (* (- 1.0) L_3) L_2 ?x524 (* (- 1.0) S_2) S_0) 0.0)))
 (let (($x6900 (not (= L_0 L_2))))
 (let (($x3321 (= L_3 L_0)))
 (let (($x26642 (or $x64 (<= (+ ?x2150 ?x7302 ?x12177 (* (- 2.0) L_1) S_2 ?x274) 0.0))))
 (let (($x5299 (<= (+ ?x2150 (* 3.0 L_2) (* (- 3.0) A_2) (* (- 2.0) L_1) S_4) (- 5.0))))
 (let (($x26553 (or $x74 (<= (+ ?x4364 ?x2150 (* (- 2.0) L_1) ?x965 S_3 ?x946) 0.0))))
 (let (($x15200 (or $x64 (<= (+ ?x2150 ?x7302 ?x12177 (* (- 2.0) L_1) S_1 ?x946) 0.0))))
 (let ((?x12196 (* (- 4.0) L_1)))
 (let ((?x12513 (* (- 4.0) A_2)))
 (let ((?x6887 (* 4.0 L_2)))
 (let ((?x1401 (* 4.0 A_1)))
 (let ((?x4361 (* 5.0 A_2)))
 (let ((?x4348 (* (- 5.0) L_2)))
 (let ((?x9868 (* 5.0 L_3)))
 (let ((?x12734 (* (- 5.0) A_3)))
 (let (($x26334 (or $x74 (<= (+ ?x10636 ?x4057 ?x6518 ?x4414 (* (- 1.0) S_2) S_4) 0.0))))
 (let (($x25802 (or $x64 (<= (+ A_1 ?x7302 ?x524 (* (- 1.0) L_1) ?x520 S_4) 0.0))))
 (let (($x11560 (<= (+ ?x10636 ?x4057 (* (- 3.0) L_0) ?x4414 (* (- 1.0) S_2) S_4) 0.0)))
 (let (($x26730 (or $x64 (<= (+ ?x2150 ?x7302 ?x12177 (* (- 2.0) L_1) ?x503 S_4) 0.0))))
 (let (($x12539 (<= (+ (* (- 2.0) A_1) ?x914 ?x12768 (* 2.0 L_1) ?x503 S_0) 0.0)))
 (let (($x54 (= L_1 L_0)))
 (let (($x18730 (or $x54 (<= (+ ?x214 (* (- 1.0) L_2) A_2 L_1 ?x503 S_1) 0.0))))
 (let (($x19736 (or $x64 (<= (+ ?x1042 ?x1046 ?x7302 ?x12177 S_1 (* (- 1.0) S_4)) 0.0))))
 (let (($x15500 (or $x64 (<= (+ A_3 (* (- 1.0) L_3) L_2 ?x524 ?x503 S_1) 0.0))))
 (let (($x21695 (or $x64 (<= (+ ?x1401 ?x6887 ?x12513 ?x12196 S_4 (* (- 1.0) A_0) L_0) 0.0))))
 (let (($x9487 (<= (+ (* (- 1.0) L_2) A_3 (* (- 1.0) S_4)) 0.0)))
 (let ((?x497 (* (- 1.0) S_4)))
 (let ((?x17481 (* 2.0 L_1)))
 (let ((?x3530 (* (- 2.0) A_1)))
 (let ((?x281 (* (- 1.0) S_2)))
 (let ((?x12552 (* (- 3.0) L_1)))
 (let ((?x6903 (* (- 3.0) A_2)))
 (let ((?x979 (* 3.0 L_2)))
 (let ((?x7192 (* 3.0 A_1)))
 (let (($x15339 (or $x74 (<= (+ L_3 A_1 (* (- 1.0) L_1) ?x520 S_1 ?x946) 0.0))))
 (let (($x15588 (or $x74 (<= (+ ?x4364 ?x2150 (* (- 2.0) L_1) ?x965 ?x274 S_4) 0.0))))
 (let (($x26519 (or $x74 (<= (+ L_3 A_1 (* (- 1.0) L_1) ?x520 ?x503 S_4) 0.0))))
 (let (($x12976 (<= (+ (* 4.0 L_1) (* (- 4.0) A_1) S_4 (* 3.0 S_0)) (- 20.0))))
 (let (($x309 (or $x74 (<= (+ L_0 ?x19614 (* (- 1.0) A_0) ?x2127 (* (/ 3.0 2.0) S_1)) (- (/ 5.0 2.0))))))
 (let (($x8731 (<= (+ ?x520 L_3 (* (- 1.0) L_2) A_2 S_1 (* (- 1.0) A_0) L_0) 0.0)))
 (let (($x15282 (or $x74 (<= (+ L_3 A_1 (* (- 1.0) L_1) ?x520 S_3 ?x281) 0.0))))
 (let (($x15218 (or $x54 (<= (+ (* (- 1.0) L_3) ?x214 L_1 A_3 S_1 ?x497) 0.0))))
 (let (($x6051 (or $x54 $x74 (<= (+ ?x19614 ?x10593 (* (/ 1.0 2.0) L_1) ?x2127 S_2) (- 5.0)))))
 (let (($x26762 (or $x74 (<= (+ ?x1977 ?x2603 ?x1839 ?x2598 S_4 (* (- 1.0) A_0) L_0) 0.0))))
 (let (($x15689 (or $x54 (<= (+ ?x214 (* (- 1.0) L_2) A_2 L_1 ?x281 S_0) 0.0))))
 (let (($x25792 (or $x64 (<= (+ ?x2150 ?x7302 ?x12177 (* (- 2.0) L_1) S_3 ?x281) 0.0))))
 (let (($x21145 (or $x74 (<= (+ (* (/ 1.0 3.0) L_3) (* (/ 1.0 3.0) S_0) (* (- (/ 1.0 3.0)) A_3)) (- (/ 20.0 3.0))) (<= (+ ?x5588 ?x19614 ?x2127 ?x1045) (- (/ 15.0 2.0))))))
 (let ((?x6142 (* (/ 1.0 2.0) A_3)))
 (let ((?x17179 (* (/ 1.0 2.0) L_1)))
 (let ((?x6141 (* (- (/ 1.0 2.0)) L_3)))
 (let (($x17991 (or $x74 (<= (+ L_3 A_1 (* (- 1.0) L_1) ?x520 S_2 ?x274) 0.0))))
 (let (($x17463 (<= (+ ?x3306 (* (/ 3.0 2.0) A_1) (* (- (/ 3.0 2.0)) L_1) ?x1776 S_3 ?x274) 0.0)))
 (let ((?x1102 (* (- 1.0) A_0)))
 (let ((?x17573 (* (- (/ 3.0 2.0)) L_1)))
 (let ((?x13019 (* (/ 3.0 2.0) A_1)))
 (let (($x4385 (<= (+ (* 3.0 A_3) (* (- 3.0) L_3) ?x979 ?x6903 S_0 ?x497) 0.0)))
 (let ((?x6990 (* (/ 3.0 2.0) A_3)))
 (let ((?x17664 (* (/ 3.0 2.0) L_1)))
 (let ((?x1896 (* (- (/ 3.0 2.0)) A_1)))
 (let ((?x11807 (* (- (/ 3.0 2.0)) L_3)))
 (let (($x9876 (<= (+ (* (- 3.0) A_1) ?x6518 ?x4414 (* 3.0 L_1) S_0 ?x497) 0.0)))
 (let (($x18931 (or $x3321 (<= (+ ?x10636 ?x4057 (* (- 3.0) L_0) ?x4414 S_2 ?x946) 0.0) $x6900)))
 (let (($x17536 (or $x1655 $x3384 (<= (+ A_3 (* (- 1.0) L_3) ?x7302 ?x12177 A_1 ?x602) 0.0))))
 (let (($x26075 (or $x74 (<= (+ ?x520 L_3 (* (- 1.0) L_2) A_2 ?x214 L_0 S_2) 0.0))))
 (let (($x1073 (not (<= 0.0 (+ L_1 (* (- 1.0) L_2))))))
 (let (($x26130 (or $x54 $x1073 $x1726 (<= (+ ?x214 (* (- (/ 2.0 3.0)) S_4) (* (/ 2.0 3.0) S_0) A_3) 0.0))))
 (let (($x19552 (or $x64 $x1726 (<= (+ ?x12177 A_1 L_2 (* (- 1.0) L_1) A_3) 0.0))))
 (let (($x4326 (= L_3 L_1)))
 (let (($x1645 (not (= L_1 L_2))))
 (let (($x6334 (or $x1645 $x54 $x4326 (<= (+ ?x19614 ?x10593 (* (- (/ 1.0 2.0)) L_1) ?x2127 A_2) 0.0))))
 (let (($x26361 (or $x54 $x9487 (<= (+ ?x214 (* (- 1.0) L_2) A_2 L_1 S_2 ?x497) 0.0))))
 (let ((?x4100 (* (- 5.0) L_1)))
 (let ((?x3670 (* (- 5.0) A_2)))
 (let ((?x4480 (* 5.0 L_2)))
 (let ((?x10330 (* 5.0 A_1)))
 (let (($x17136 (<= (+ (* (- 1.0) L_1) A_3 ?x497) 0.0)))
 (let (($x388 (or $x54 $x1645 (<= (+ ?x214 (* (/ 1.0 2.0) S_1) A_2 (* (- (/ 1.0 2.0)) S_4)) 0.0) $x17136)))
 (let (($x6652 (or (<= (+ L_0 (* (/ 3.0 2.0) S_1) (* (- (/ 1.0 2.0)) S_4) ?x1102) 0.0) $x9487)))
 (let (($x12447 (or (<= (+ L_0 (* (- 2.0) S_4) (* 3.0 S_2) ?x1102) 0.0) $x9487)))
 (let (($x18788 (or $x64 (<= (+ ?x2150 ?x7302 ?x12177 (* (- 2.0) L_1) S_2 ?x1102 L_0) 0.0))))
 (let (($x17577 (or $x64 (<= (+ A_1 L_2 ?x524 (* (- 1.0) L_1) S_1 ?x1102 L_0) 0.0))))
 (let (($x19341 (or $x74 (<= (+ ?x4364 ?x2150 (* (- 2.0) L_1) ?x965 S_4 ?x1102 L_0) 0.0))))
 (let ((?x19134 (* (- (/ 5.0 2.0)) A_3)))
 (let ((?x17523 (* (- (/ 5.0 2.0)) L_1)))
 (let ((?x4755 (* (/ 5.0 2.0) A_1)))
 (let ((?x19169 (* (/ 5.0 2.0) L_3)))
 (let (($x25780 (or $x74 (<= (+ L_3 A_1 (* (- 1.0) L_1) ?x520 S_2 ?x1102 L_0) 0.0))))
 (let (($x15642 (or $x74 (<= (+ ?x19614 ?x1045 (* (- (/ 1.0 2.0)) L_1) ?x2127 S_1 ?x1102 L_0) 0.0))))
 (let (($x18921 (or $x54 (<= (+ (* (- 1.0) L_3) ?x214 L_1 A_3 ?x503 S_0) 0.0))))
 (let (($x4434 (or $x54 $x1645 (<= (+ ?x214 A_2 (* (- (/ 1.0 3.0)) S_4) (* (/ 1.0 3.0) S_0)) 0.0) $x17136)))
 (let (($x26219 (or $x64 (<= (+ A_3 (* (- 1.0) L_3) L_2 ?x524 S_2 ?x497) 0.0))))
 (let (($x17019 (or (<= (+ ?x5588 (* (- (/ 1.0 2.0)) S_4) ?x1045) (- 5.0)) (<= (+ (* (- (/ 1.0 3.0)) S_4) (* (/ 1.0 3.0) S_0)) (- 5.0)) $x9487)))
 (let (($x12162 (<= (+ ?x3521 (* (- (/ 1.0 2.0)) S_3)) (- 5.0))))
 (let (($x813 (not (<= (+ A_2 (* (- 1.0) L_2)) S_3))))
 (let (($x14679 (or $x54 (<= (+ ?x214 L_1 S_1) (- 5.0)))))
 (let (($x1075 (not (<= 0.0 (+ (* (- 1.0) L_1) L_0)))))
 (let (($x1524 (or $x54 $x1075)))
 (let (($x1630 (or $x74 (not (<= 0.0 (+ L_2 (* (- 1.0) L_3)))))))
 (let (($x1310 (or $x64 $x1073)))
 (let (($x15443 (or $x64 (<= (+ ?x524 L_2 S_2) (- 5.0)))))
 (let ((?x495 (* (- 1.0) L_2)))
 (let ((?x496 (+ A_2 ?x495)))
 (let (($x543 (<= ?x496 S_4)))
 (let (($x776 (<= (+ A_1 (* (- 1.0) L_1)) S_3)))
 (let (($x125 (>= A_4 A_3)))
 (let (($x124 (>= A_3 A_2)))
 (let (($x122 (>= A_1 A_0)))
 (let (($x117 (>= S_3 S_2)))
 (let (($x114 (>= S_2 S_1)))
 (let (($x111 (>= S_1 S_0)))
 (let (($x36 (>= L_0 L0)))
 (and $x36 $x111 $x114 $x117 $x122 $x124 $x125 $x776 $x543 $x15443 $x1310 $x1630 $x1524 $x14679 $x813 (or $x12162 (<= (+ ?x602 A_1 ?x503) (- 5.0))) $x17019 (or $x2181 (<= (+ ?x10318 S_4 ?x2150 (* (- 3.0) S_3)) 0.0)) (or $x1181 (<= (+ ?x281 S_0) (- 5.0))) $x26219 (or $x1181 (<= (+ S_4 (* (- 4.0) S_2) (* 3.0 S_0)) 0.0)) (or $x54 $x64 $x74 (= (+ L_1 ?x214 L_3 ?x520 ?x914 ?x12768) 0.0)) $x4434 (or $x64 $x1726 (<= (+ ?x1042 ?x12177 S_1 ?x497) 0.0)) (or $x54 (<= (+ ?x6141 ?x1896 ?x17664 ?x6142 S_0) (- 5.0))) $x18921 $x15642 (or $x54 (<= (+ ?x6141 ?x10593 ?x17179 ?x6142 ?x281 S_0) 0.0)) $x25780 (or $x74 (<= (+ ?x19169 ?x4755 ?x17523 ?x19134 ?x946 S_4) 0.0)) (or $x74 (<= (+ ?x3306 ?x13019 ?x17573 ?x1776 ?x281 S_4) 0.0)) $x19341 (or $x74 (<= (+ ?x3306 ?x13019 ?x17573 ?x1776 S_2 ?x946) 0.0)) $x17577 (or $x64 (<= (+ ?x7192 ?x979 ?x6903 ?x12552 L_0 S_3 ?x1102) 0.0)) $x18788 $x12447 (or (<= (+ (* (- 3.0) S_4) (* 4.0 S_2) ?x946) 0.0) $x9487) $x6652 (or $x54 $x1645 (<= (+ ?x214 A_2 ?x497 S_2) 0.0) $x17136) $x388 (or $x64 (<= (+ ?x10330 ?x4480 ?x3670 ?x4100 ?x946 S_4) 0.0)) (or $x64 (<= (+ ?x7192 ?x979 ?x6903 ?x12552 S_2 ?x946) 0.0)) $x26361 (or $x1655 $x1726 $x3384 (<= (+ ?x12177 A_1 L_2 ?x602 A_3) 0.0)) (or $x54 $x9487 (<= (+ ?x6141 ?x10593 ?x17179 ?x6142 S_2 ?x497) 0.0)) $x6334 $x19552 $x26130 (or $x74 (<= (+ ?x965 ?x4364 ?x914 ?x12768 S_2 ?x1102 L_0) 0.0)) (or (<= (+ ?x1044 (* (- (/ 1.0 2.0)) S_4) ?x10593 S_2) 0.0) $x9487) $x26075 (or (<= (+ ?x497 S_2) (- 5.0)) $x9487) $x17536 (or $x9487 (<= (+ (* (/ 1.0 2.0) S_1) (* (- (/ 1.0 2.0)) S_4)) (- 5.0))) (or $x9487 (<= (+ (* 2.0 S_1) ?x497 ?x946) 0.0)) (or $x54 $x9487 (<= (+ L_1 ?x214 ?x497 (* 2.0 S_2)) (- 5.0))) $x18931 (or $x74 (<= (+ ?x10636 ?x4057 ?x6518 ?x4414 S_2 ?x946) 0.0)) (or $x64 (>= (+ ?x214 ?x495 A_2 L_1) 5.0)) (or $x3321 (>= (+ A_3 (* (- 1.0) L_3) L_0 ?x524) 5.0) $x6900) (or $x54 $x9487 $x9876) (or $x74 (>= (+ ?x6141 ?x10593 ?x17179 ?x6142) 5.0)) (or $x54 (<= (+ ?x11807 ?x1896 ?x17664 ?x6990 S_0 ?x497) 0.0)) (or $x1655 $x3384 $x4385 $x5712) (or $x74 (<= (+ ?x3306 ?x13019 ?x17573 ?x1776 L_0 S_3 ?x1102) 0.0)) (or $x74 $x17463) $x17991 (or $x54 (<= (+ L_1 ?x214 S_0) (- 10.0))) (or $x54 (<= (+ ?x6141 ?x10593 ?x17179 ?x6142 ?x503 S_1) 0.0)) $x21145 (or $x54 (<= (+ ?x17481 ?x3530 S_2 S_0) (- 10.0))) (or $x1181 (<= (+ (* (- 3.0) S_2) (* 2.0 S_0) S_3) 0.0)) $x25792 $x15689 (or $x54 (<= (+ ?x3530 ?x495 A_2 ?x17481 S_0) (- 5.0))) $x26762 (or $x64 (<= (+ ?x7192 ?x979 ?x6903 ?x12552 S_3 ?x274) 0.0)) $x6051 (or $x9487 (<= (+ ?x274 (* (- 2.0) S_4) (* 3.0 S_2)) 0.0)) $x15218 $x15282 (or $x74 $x8731) $x309 (or $x54 $x12976) (or $x74 (<= (+ ?x3306 ?x1045 (* (- (/ 1.0 2.0)) L_1) ?x1776 S_4) (- 5.0))) (or $x54 (<= (+ ?x17481 ?x214 S_4 S_0 ?x520) (- 5.0))) $x26519 $x15588 $x15339 (or $x64 (<= (+ ?x7192 ?x979 ?x6903 ?x12552 ?x281 S_4) 0.0)) (or $x54 (<= (+ ?x3530 ?x914 ?x12768 ?x17481 S_1 ?x497) 0.0) $x9487) $x21695 (or $x64 (<= (+ A_3 ?x524 ?x503 S_1) 0.0) $x1726) $x15500 $x19736 $x18730 (or $x54 $x12539) (or $x1655 $x3384 (<= (+ ?x2150 ?x7302 ?x12177 ?x10318 ?x503 S_4) 0.0)) $x26730 (or $x64 (<= (+ ?x1401 ?x6887 ?x12513 ?x12196 ?x274 S_4) 0.0)) (or (<= (+ ?x965 ?x4364 ?x10318 ?x12768 ?x503 S_4) 0.0) $x3321 $x6900) (or $x3321 $x6900 $x11560) $x25802 (or $x74 (<= (+ ?x965 ?x4364 ?x914 ?x12768 ?x503 S_4) 0.0)) $x26334 (or $x74 (>= (+ A_3 (* (- 1.0) L_3) L_2 ?x524) 5.0)) (or $x74 (<= (+ ?x12734 ?x9868 ?x4348 ?x4361 ?x946 S_4) 0.0)) (or $x64 (<= (+ ?x1401 ?x6887 ?x12513 ?x12196 S_3 ?x946) 0.0)) $x15200 $x26553 (or $x64 $x5299) (or $x74 (<= (+ ?x19614 ?x2127 (* (/ 1.0 2.0) S_1)) (- (/ 15.0 2.0)))) $x26642 (or $x2181 (<= (+ ?x602 L_3 S_4 ?x520 ?x503 A_1) 0.0)) (or $x64 $x1726 $x2181 (<= (+ ?x602 ?x524 A_3 ?x503 A_1) 0.0)) (or $x64 (<= (+ A_3 (* (- 1.0) L_3) ?x7302 ?x12177 S_1) (- 5.0))) (or $x3321 (<= (+ ?x10636 ?x4057 ?x10318 ?x4414 ?x214 S_4) 0.0) $x6900) (or $x64 $x1181 $x8054) (or $x74 (<= (+ ?x965 ?x4364 ?x914 ?x12768 ?x214 L_0 S_3) 0.0)) (or $x74 (<= (+ ?x10636 ?x4057 ?x6518 ?x4414 ?x214 L_0 S_4) 0.0)) (or $x74 (<= (+ A_2 ?x495 ?x965 ?x4364 S_4) (- 5.0))) (or $x74 (<= (+ ?x1977 ?x2603 ?x1839 ?x2598 ?x274 S_4) 0.0)) $x8960 $x16227 $x17618 (or $x64 (<= (+ L_2 ?x524 S_1) (- 10.0))) (or $x74 (<= (+ ?x965 ?x4364 ?x914 ?x12768 S_1 ?x946) 0.0)) $x15794 (or $x74 (<= (+ ?x1044 ?x19614 ?x2127 S_2 ?x10593) (- (/ 5.0 2.0)))) (or $x74 (<= (+ L_3 ?x520 S_2) (- 10.0))) $x1731 (or $x64 $x8307) (or $x64 (<= (+ ?x7302 ?x524 S_4 ?x520 S_1) (- 5.0))) (or $x64 (<= (+ ?x7302 ?x12177 ?x946 (* 3.0 S_1)) (- 10.0))) (or $x74 (<= (+ ?x4057 ?x10636 ?x946 (* 4.0 S_2)) (- 15.0))) (or $x74 (<= (+ L_3 ?x520 (* 2.0 S_1) ?x946) (- 5.0))) (or $x74 (<= (+ ?x4364 ?x965 ?x274 (* 3.0 S_2)) (- 10.0))) (or $x2840 (<= (+ S_4 S_0 (* (- 2.0) S_3)) 0.0)) (or $x64 (<= (+ ?x7302 ?x12177 S_4 S_0) (- 10.0)) $x13363) $x16432 $x26454 (or $x74 (<= (+ ?x10636 ?x4057 ?x6518 ?x4414 S_3 ?x274) 0.0)) $x16583 (or $x74 (<= (+ ?x1977 ?x2603 ?x1839 ?x2598 S_3 ?x946) 0.0)) $x19081 (or $x64 $x13363 $x14093) $x17260 (or $x74 (<= (+ ?x965 ?x4364 ?x914 ?x12768 S_2 ?x274) 0.0)) (or $x1181 (<= (+ L_2 ?x281 S_4 S_0 ?x520) 0.0)) (or $x74 (<= (+ ?x3306 S_4 ?x1776 (* (/ 1.0 2.0) S_1)) (- (/ 15.0 2.0)))) $x2024 (or $x74 $x887 (<= (+ ?x5588 ?x3306 S_4 ?x1776 ?x1045) (- (/ 15.0 2.0)))) $x21985 (or $x3384 $x4902 (not $x5712)) $x26395 (or $x64 $x2840 (<= (+ ?x1042 ?x1046 ?x7302 ?x12177 ?x503 S_0) 0.0)) $x18004 (or $x3384 (<= (+ ?x7302 ?x602 ?x524 S_4 ?x520 A_1) (- 5.0)) $x13144) $x4686 $x2432 $x1104 $x37 (<= (+ S_4 (* (- 3.0) S_3) (* 2.0 S_1)) 0.0) $x2859 (<= (+ ?x946 (* (- 2.0) S_3) (* 3.0 S_1)) 0.0) (<= (+ L_2 S_4 ?x520 ?x503 S_1) 0.0) (<= (+ ?x503 S_1) (- 5.0))))))))))))))))))))))))))))))))))))))))))))))))))))))))))))))))))))))))))))))))))))))))))))))))))))))))))))))))))))))))))))))))))))))))))))))))))))))))))))))))))))))))))))))))))))))))))
(check-sat)
